tsp_instances/TSP20/instance48.tsp
NODE_COORD_SECTION
0 150 20
1 36 188
2 195 129
3 2 131
4 193 14
5 47 45
6 133 124
7 187 80
8 10 136
9 96 67
10 105 173
11 169 154
12 51 84
13 59 106
14 62 40
15 105 47
16 163 49
17 183 84
18 3 91
19 165 11
