tsp_instances/TSP20/instance48.opt.tour
TOUR_SECTION
1
16
10
15
6
13
14
19
4
9
2
11
7
12
3
18
8
17
5
20
-1